BAYES
37
2 3 3 2 3 3 2 2 2 4 2 2 3 3 3 3 2 2 3 2 3 2 4 3 3 3 4 2 3 3 2 3 3 4 4 4 4
37
1  0
2 33 1
3 4 32 2
5 1 17 29 32 3
3 12 31 4
2 20 5
1  6
1  7
1  8
3 1 34 9
1  10
2 21 11
2 3 12
3 8 12 13
3 7 12 14
3 7 12 15
1  16
1  17
1  18
1  19
3 16 21 20
1  21
3 18 34 22
1  23
2 27 24
2 20 25
4 18 19 36 26
1  27
3 10 33 28
3 28 30 29
3 18 27 30
3 16 21 31
2 0 32
3 18 34 33
4 18 19 36 34
2 23 35
3 6 35 36

2
0.01 0.99
12
0.01 0.01 0.98 0.01 0.01 0.98 0.04 0.92 0.04 0.9 0.09 0.01
27
0.98 0.01 0.01 0.98 0.01 0.01 0.3 0.6 0.1 0.98 0.01 0.01 0.1 0.85 0.05 0.05 0.4 0.55 0.9 0.09 0.01 0.05 0.2 0.75 0.01 0.09 0.9
108
0.01 0.99 0.01 0.99 0.7 0.3 0.01 0.99 0.05 0.95 0.7 0.3 0.01 0.99 0.05 0.95 0.95 0.05 0.01 0.99 0.05 0.95 0.7 0.3 0.01 0.99 0.05 0.95 0.95 0.05 0.05 0.95 0.05 0.95 0.95 0.05 0.01 0.99 0.01 0.99 0.7 0.3 0.01 0.99 0.05 0.95 0.7 0.3 0.01 0.99 0.05 0.95 0.99 0.01 0.01 0.99 0.05 0.95 0.7 0.3 0.01 0.99 0.05 0.95 0.99 0.01 0.05 0.95 0.05 0.95 0.99 0.01 0.01 0.99 0.01 0.99 0.1 0.9 0.01 0.99 0.01 0.99 0.1 0.9 0.01 0.99 0.01 0.99 0.3 0.7 0.01 0.99 0.01 0.99 0.1 0.9 0.01 0.99 0.01 0.99 0.3 0.7 0.01 0.99 0.01 0.99 0.3 0.7
27
0.98 0.01 0.01 0.95 0.04 0.01 0.3 0.69 0.01 0.95 0.04 0.01 0.04 0.95 0.01 0.01 0.3 0.69 0.8 0.19 0.01 0.01 0.04 0.95 0.01 0.01 0.98
9
0.95 0.04 0.01 0.04 0.95 0.01 0.01 0.29 0.7
2
0.1 0.9
2
0.1 0.9
2
0.05 0.95
48
0.97 0.01 0.01 0.01 0.01 0.97 0.01 0.01 0.01 0.01 0.97 0.01 0.01 0.01 0.01 0.97 0.01 0.97 0.01 0.01 0.97 0.01 0.01 0.01 0.01 0.01 0.97 0.01 0.01 0.01 0.01 0.97 0.01 0.97 0.01 0.01 0.01 0.01 0.97 0.01 0.97 0.01 0.01 0.01 0.01 0.01 0.01 0.97
2
0.05 0.95
4
0.9 0.1 0.01 0.99
6
0.05 0.9 0.05 0.01 0.09 0.9
18
0.98 0.01 0.01 0.3 0.4 0.3 0.01 0.98 0.01 0.4 0.59 0.01 0.98 0.01 0.01 0.01 0.01 0.98
18
0.3333333 0.3333333 0.3333333 0.3333333 0.3333333 0.3333333 0.01 0.98 0.01 0.3333333 0.3333333 0.3333333 0.98 0.01 0.01 0.01 0.01 0.98
18
0.3333333 0.3333333 0.3333333 0.3333333 0.3333333 0.3333333 0.01 0.98 0.01 0.3333333 0.3333333 0.3333333 0.98 0.01 0.01 0.01 0.01 0.98
2
0.2 0.8
2
0.1 0.9
3
0.92 0.03 0.05
2
0.04 0.96
12
0.95 0.04 0.01 0.01 0.09 0.9 0.98 0.01 0.01 0.05 0.9 0.05
2
0.05 0.95
48
0.97 0.01 0.01 0.01 0.01 0.01 0.01 0.97 0.5 0.48 0.01 0.01 0.01 0.97 0.01 0.01 0.01 0.97 0.01 0.01 0.97 0.01 0.01 0.01 0.5 0.48 0.01 0.01 0.01 0.01 0.97 0.01 0.01 0.01 0.97 0.01 0.6 0.38 0.01 0.01 0.97 0.01 0.01 0.01 0.01 0.01 0.01 0.97
3
0.05 0.9 0.05
6
0.01 0.19 0.8 0.05 0.9 0.05
9
0.95 0.04 0.01 0.04 0.95 0.01 0.01 0.04 0.95
96
0.97 0.01 0.01 0.01 0.05 0.25 0.25 0.45 0.97 0.01 0.01 0.01 0.2 0.75 0.04 0.01 0.01 0.01 0.01 0.97 0.01 0.29 0.3 0.4 0.01 0.01 0.01 0.97 0.01 0.9 0.08 0.01 0.01 0.3 0.49 0.2 0.01 0.15 0.25 0.59 0.01 0.97 0.01 0.01 0.2 0.7 0.09 0.01 0.97 0.01 0.01 0.01 0.01 0.01 0.08 0.9 0.97 0.01 0.01 0.01 0.01 0.01 0.38 0.6 0.01 0.01 0.08 0.9 0.97 0.01 0.01 0.01 0.01 0.01 0.97 0.01 0.97 0.01 0.01 0.01 0.1 0.84 0.05 0.01 0.01 0.01 0.01 0.97 0.4 0.58 0.01 0.01 0.01 0.01 0.01 0.97
2
0.01 0.99
24
1.0 0.0 0.0 0.95 0.04 0.01 1.0 0.0 0.0 0.01 0.95 0.04 0.99 0.01 0.0 0.95 0.04 0.01 0.95 0.04 0.01 0.01 0.01 0.98
18
0.98 0.01 0.01 0.98 0.01 0.01 0.01 0.98 0.01 0.98 0.01 0.01 0.01 0.01 0.98 0.69 0.3 0.01
12
0.1 0.9 0.95 0.05 0.1 0.9 0.95 0.05 0.01 0.99 0.05 0.95
12
0.98 0.01 0.01 0.5 0.49 0.01 0.95 0.04 0.01 0.05 0.9 0.05
6
0.98 0.01 0.01 0.3 0.4 0.3
48
0.97 0.01 0.01 0.01 0.01 0.01 0.01 0.97 0.01 0.01 0.97 0.01 0.03 0.95 0.01 0.01 0.01 0.97 0.01 0.01 0.97 0.01 0.01 0.01 0.01 0.01 0.01 0.97 0.01 0.94 0.04 0.01 0.01 0.01 0.97 0.01 0.01 0.97 0.01 0.01 0.97 0.01 0.01 0.01 0.01 0.88 0.1 0.01
96
0.97 0.01 0.01 0.01 0.97 0.01 0.01 0.01 0.97 0.01 0.01 0.01 0.97 0.01 0.01 0.01 0.3 0.68 0.01 0.01 0.95 0.03 0.01 0.01 0.01 0.01 0.01 0.97 0.01 0.97 0.01 0.01 0.95 0.03 0.01 0.01 0.97 0.01 0.01 0.01 0.01 0.97 0.01 0.01 0.97 0.01 0.01 0.01 0.97 0.01 0.01 0.01 0.5 0.48 0.01 0.01 0.97 0.01 0.01 0.01 0.01 0.01 0.97 0.01 0.4 0.58 0.01 0.01 0.97 0.01 0.01 0.01 0.01 0.01 0.97 0.01 0.97 0.01 0.01 0.01 0.97 0.01 0.01 0.01 0.3 0.68 0.01 0.01 0.97 0.01 0.01 0.01 0.01 0.01 0.01 0.97
12
0.05 0.93 0.01 0.01 0.05 0.01 0.93 0.01 0.05 0.01 0.01 0.93
32
0.97 0.01 0.01 0.01 0.97 0.01 0.01 0.01 0.97 0.01 0.01 0.01 0.01 0.01 0.97 0.01 0.97 0.01 0.01 0.01 0.97 0.01 0.01 0.01 0.01 0.97 0.01 0.01 0.01 0.01 0.01 0.97